NAME : r201
TYPE : VRPSPD
DIMENSION : 101
VEHICLES : 3
CAPACITY : 1000
DISTANCE : 999999
SCALE : 1000
EDGE_WEIGHT_TYPE : EXACT_2D
NODE_COORD_SECTION
1 35 35
2 41 49
3 35 17
4 55 45
5 55 20
6 15 30
7 25 30
8 20 50
9 10 43
10 55 60
11 30 60
12 20 65
13 50 35
14 30 25
15 15 10
16 30 5
17 10 20
18 5 30
19 20 40
20 15 60
21 45 65
22 45 20
23 45 10
24 55 5
25 65 35
26 65 20
27 45 30
28 35 40
29 41 37
30 64 42
31 40 60
32 31 52
33 35 69
34 53 52
35 65 55
36 63 65
37 2 60
38 20 20
39 5 5
40 60 12
41 40 25
42 42 7
43 24 12
44 23 3
45 11 14
46 6 38
47 2 48
48 8 56
49 13 52
50 6 68
51 47 47
52 49 58
53 27 43
54 37 31
55 57 29
56 63 23
57 53 12
58 32 12
59 36 26
60 21 24
61 17 34
62 12 24
63 24 58
64 27 69
65 15 77
66 62 77
67 49 73
68 67 5
69 56 39
70 37 47
71 37 56
72 57 68
73 47 16
74 44 17
75 46 13
76 49 11
77 49 42
78 53 43
79 61 52
80 57 48
81 56 37
82 55 54
83 15 47
84 14 37
85 11 31
86 16 22
87 4 18
88 28 18
89 26 52
90 26 35
91 31 67
92 15 19
93 22 22
94 18 24
95 26 27
96 25 24
97 22 27
98 25 21
99 19 21
100 20 26
101 18 18
PICKUP_AND_DELIVERY_SECTION
1 0 0 10000000 0 0 0
2 0 0 10000000 0 18 10
3 0 0 10000000 0 23 7
4 0 0 10000000 0 13 13
5 0 0 10000000 0 37 19
6 0 0 10000000 0 1 26
7 0 0 10000000 0 3 3
8 0 0 10000000 0 17 5
9 0 0 10000000 0 5 9
10 0 0 10000000 0 26 16
11 0 0 10000000 0 28 16
12 0 0 10000000 0 35 12
13 0 0 10000000 0 20 19
14 0 0 10000000 0 30 23
15 0 0 10000000 0 27 20
16 0 0 10000000 0 33 8
17 0 0 10000000 0 13 19
18 0 0 10000000 0 34 2
19 0 0 10000000 0 35 12
20 0 0 10000000 0 5 17
21 0 0 10000000 0 35 9
22 0 0 10000000 0 38 11
23 0 0 10000000 0 37 18
24 0 0 10000000 0 5 29
25 0 0 10000000 0 26 3
26 0 0 10000000 0 37 6
27 0 0 10000000 0 9 17
28 0 0 10000000 0 7 16
29 0 0 10000000 0 15 16
30 0 0 10000000 0 21 9
31 0 0 10000000 0 27 21
32 0 0 10000000 0 7 27
33 0 0 10000000 0 29 23
34 0 0 10000000 0 5 11
35 0 0 10000000 0 33 14
36 0 0 10000000 0 24 8
37 0 0 10000000 0 18 5
38 0 0 10000000 0 3 8
39 0 0 10000000 0 14 16
40 0 0 10000000 0 33 31
41 0 0 10000000 0 22 9
42 0 0 10000000 0 12 5
43 0 0 10000000 0 7 5
44 0 0 10000000 0 34 7
45 0 0 10000000 0 33 18
46 0 0 10000000 0 32 16
47 0 0 10000000 0 38 1
48 0 0 10000000 0 26 27
49 0 0 10000000 0 39 36
50 0 0 10000000 0 30 30
51 0 0 10000000 0 8 13
52 0 0 10000000 0 30 10
53 0 0 10000000 0 25 9
54 0 0 10000000 0 37 14
55 0 0 10000000 0 35 18
56 0 0 10000000 0 34 2
57 0 0 10000000 0 21 6
58 0 0 10000000 0 41 7
59 0 0 10000000 0 31 18
60 0 0 10000000 0 16 28
61 0 0 10000000 0 31 3
62 0 0 10000000 0 14 13
63 0 0 10000000 0 8 19
64 0 0 10000000 0 26 10
65 0 0 10000000 0 40 9
66 0 0 10000000 0 18 20
67 0 0 10000000 0 26 25
68 0 0 10000000 0 18 25
69 0 0 10000000 0 38 36
70 0 0 10000000 0 28 6
71 0 0 10000000 0 29 5
72 0 0 10000000 0 37 15
73 0 0 10000000 0 20 25
74 0 0 10000000 0 26 9
75 0 0 10000000 0 17 8
76 0 0 10000000 0 23 18
77 0 0 10000000 0 16 13
78 0 0 10000000 0 17 14
79 0 0 10000000 0 2 3
80 0 0 10000000 0 39 23
81 0 0 10000000 0 6 6
82 0 0 10000000 0 21 26
83 0 0 10000000 0 18 16
84 0 0 10000000 0 11 11
85 0 0 10000000 0 38 7
86 0 0 10000000 0 26 41
87 0 0 10000000 0 2 35
88 0 0 10000000 0 38 26
89 0 0 10000000 0 8 9
90 0 0 10000000 0 19 15
91 0 0 10000000 0 33 3
92 0 0 10000000 0 4 1
93 0 0 10000000 0 28 2
94 0 0 10000000 0 33 22
95 0 0 10000000 0 38 27
96 0 0 10000000 0 11 20
97 0 0 10000000 0 33 11
98 0 0 10000000 0 1 12
99 0 0 10000000 0 22 10
100 0 0 10000000 0 1 9
101 0 0 10000000 0 21 17
DEPOT_SECTION
1 
-1
EOF
